benchmarks/result/speed2.output
sat
(model
  (define-fun x0 () String
    "aabc")
  (define-fun x1 () String
    "ccbc")
  (define-fun x2 () String
    "ccdc")
  (define-fun x3 () String
    "aada")
  (define-fun x4 () String
    "aaea")
  (define-fun x5 () String
    "aafa")
  (define-fun x6 () String
    "aaga")
  (define-fun x7 () String
    "aaha")
  (define-fun x8 () String
    "aaia")
  (define-fun x9 () String
    "aaja")
  (define-fun xa () String
    "aaka")
  (define-fun xb () String
    "aala")
  (define-fun xc () String
    "aama")
  (define-fun xd () String
    "aana")
  (define-fun xe () String
    "aaoa")
  (define-fun i () Int
    4)
)
